;; Original file: adr_113.smt2
(set-logic HORN)
(declare-fun |decr$unknown:2| (Int Int) Bool)
(declare-fun |f$unknown:4| (Int Int) Bool)
(declare-fun |f$unknown:6| (Int Int) Bool)


(assert (forall ((|$V-reftype:17| Int) (|$alpha-3:x| Int))
  (=> (and (= |$V-reftype:17| (- |$alpha-3:x| 1)) true)
      (|decr$unknown:2| |$V-reftype:17| |$alpha-3:x|))))
(assert (forall ((|$knormal:4| Int) (|$V-reftype:3| Int) (decr Int))
  (=> (and (= |$knormal:4| 3)
           true
           (|decr$unknown:2| |$V-reftype:3| decr))
      (|f$unknown:4| |$V-reftype:3| decr))))
(assert (forall ((|$knormal:1| Int)
         (|$alpha-2:x| Int)
         (|$V-reftype:15| Int)
         (|$knormal:2| Int))
  (let ((a!1 (and (= (not (= 0 |$knormal:1|)) (> |$alpha-2:x| 0))
                  (= |$V-reftype:15| |$knormal:2|)
                  (not (= 0 |$knormal:1|))
                  true
                  (|f$unknown:4| |$knormal:2| |$alpha-2:x|))))
    (=> a!1 (|f$unknown:6| |$V-reftype:15| |$alpha-2:x|)))))
(assert (forall ((|$knormal:1| Int)
         (|$alpha-2:x| Int)
         (|$V-reftype:16| Int))
  (let ((a!1 (and (= (not (= 0 |$knormal:1|)) (> |$alpha-2:x| 0))
                  (= |$V-reftype:16| 1)
                  (not (not (= 0 |$knormal:1|)))
                  true)))
    (=> a!1 (|f$unknown:6| |$V-reftype:16| |$alpha-2:x|)))))
(assert (forall ((|$knormal:8| Int) (|$knormal:6| Int) (|$knormal:4| Int))
  (let ((a!1 (and (= (not (= 0 |$knormal:8|)) (> |$knormal:6| 0))
                  (= |$knormal:4| 3)
                  (not (not (= 0 |$knormal:8|)))
                  (|f$unknown:6| |$knormal:6| |$knormal:4|))))
    (=> a!1 false))))
(check-sat)
